% demand
num_movements = 28;
loading_factor = [1800, 1050, 1100, 950, 800, 1300, 1900, 800, 1100, 1400, 800, 1800, 1350, 1200, 1650, 1800, 1400, 900, 1150, 900, 1650, 1850, 1350, 1250, 1000, 1600, 1250, 1150];
pickup_time = [0, 0, 0, 0, 0, 0, 1, 1, 1, 2, 2, 2, 4, 5, 7, 7, 7, 7, 8, 9, 9, 10, 10, 10, 11, 12, 12, 12];
delivery_time = [1, 1, 1, 1, 1, 1, 3, 2, 3, 6, 3, 3, 6, 6, 9, 9, 9, 9, 9, 11, 12, 12, 13, 11, 13, 13, 13, 13];

% transporter definition
total_capacity = 7000;
num_decks = 3;
capacity = [3000, 1000, 3000];

% ways out of decks
num_ways_out = 1;
paths_out = array3d(decks, ways_out, decks, [
% ways out of deck d1
2, 3, 0, 

% ways out of deck d2
3, 0, 0, 

% ways out of deck d3
0, 0, 0,	

]);

